81
1 11
1 21
1 31
1 41
1 51
1 61
1 71
1 81
1 2
1 3
1 4
1 5
1 6
1 7
1 8
1 9
1 10
1 19
1 28
1 37
1 46
1 55
1 64
1 73
2 12
2 22
2 32
2 42
2 52
2 62
2 72
2 10
2 3
2 4
2 5
2 6
2 7
2 8
2 9
2 11
2 20
2 29
2 38
2 47
2 56
2 65
2 74
2 1
3 13
3 23
3 33
3 43
3 53
3 63
3 11
3 19
3 4
3 5
3 6
3 7
3 8
3 9
3 12
3 21
3 30
3 39
3 48
3 57
3 66
3 75
3 2
3 1
4 14
4 24
4 34
4 44
4 54
4 12
4 20
4 28
4 5
4 6
4 7
4 8
4 9
4 13
4 22
4 31
4 40
4 49
4 58
4 67
4 76
4 3
4 2
4 1
5 15
5 25
5 35
5 45
5 13
5 21
5 29
5 37
5 6
5 7
5 8
5 9
5 14
5 23
5 32
5 41
5 50
5 59
5 68
5 77
5 4
5 3
5 2
5 1
6 16
6 26
6 36
6 14
6 22
6 30
6 38
6 46
6 7
6 8
6 9
6 15
6 24
6 33
6 42
6 51
6 60
6 69
6 78
6 5
6 4
6 3
6 2
6 1
7 17
7 27
7 15
7 23
7 31
7 39
7 47
7 55
7 8
7 9
7 16
7 25
7 34
7 43
7 52
7 61
7 70
7 79
7 6
7 5
7 4
7 3
7 2
7 1
8 18
8 16
8 24
8 32
8 40
8 48
8 56
8 64
8 9
8 17
8 26
8 35
8 44
8 53
8 62
8 71
8 80
8 7
8 6
8 5
8 4
8 3
8 2
8 1
9 17
9 25
9 33
9 41
9 49
9 57
9 65
9 73
9 18
9 27
9 36
9 45
9 54
9 63
9 72
9 81
9 8
9 7
9 6
9 5
9 4
9 3
9 2
9 1
10 20
10 30
10 40
10 50
10 60
10 70
10 80
10 11
10 12
10 13
10 14
10 15
10 16
10 17
10 18
10 19
10 28
10 37
10 46
10 55
10 64
10 73
10 2
10 1
11 21
11 31
11 41
11 51
11 61
11 71
11 81
11 19
11 12
11 13
11 14
11 15
11 16
11 17
11 18
11 20
11 29
11 38
11 47
11 56
11 65
11 74
11 10
11 3
11 2
11 1
12 22
12 32
12 42
12 52
12 62
12 72
12 20
12 28
12 13
12 14
12 15
12 16
12 17
12 18
12 21
12 30
12 39
12 48
12 57
12 66
12 75
12 11
12 10
12 4
12 3
12 2
13 23
13 33
13 43
13 53
13 63
13 21
13 29
13 37
13 14
13 15
13 16
13 17
13 18
13 22
13 31
13 40
13 49
13 58
13 67
13 76
13 12
13 11
13 10
13 5
13 4
13 3
14 24
14 34
14 44
14 54
14 22
14 30
14 38
14 46
14 15
14 16
14 17
14 18
14 23
14 32
14 41
14 50
14 59
14 68
14 77
14 13
14 12
14 11
14 10
14 6
14 5
14 4
15 25
15 35
15 45
15 23
15 31
15 39
15 47
15 55
15 16
15 17
15 18
15 24
15 33
15 42
15 51
15 60
15 69
15 78
15 14
15 13
15 12
15 11
15 10
15 7
15 6
15 5
16 26
16 36
16 24
16 32
16 40
16 48
16 56
16 64
16 17
16 18
16 25
16 34
16 43
16 52
16 61
16 70
16 79
16 15
16 14
16 13
16 12
16 11
16 10
16 8
16 7
16 6
17 27
17 25
17 33
17 41
17 49
17 57
17 65
17 73
17 18
17 26
17 35
17 44
17 53
17 62
17 71
17 80
17 16
17 15
17 14
17 13
17 12
17 11
17 10
17 9
17 8
17 7
18 26
18 34
18 42
18 50
18 58
18 66
18 74
18 27
18 36
18 45
18 54
18 63
18 72
18 81
18 17
18 16
18 15
18 14
18 13
18 12
18 11
18 10
18 9
18 8
19 29
19 39
19 49
19 59
19 69
19 79
19 20
19 21
19 22
19 23
19 24
19 25
19 26
19 27
19 28
19 37
19 46
19 55
19 64
19 73
19 11
19 10
19 3
19 1
20 30
20 40
20 50
20 60
20 70
20 80
20 28
20 21
20 22
20 23
20 24
20 25
20 26
20 27
20 29
20 38
20 47
20 56
20 65
20 74
20 19
20 12
20 11
20 10
20 4
20 2
21 31
21 41
21 51
21 61
21 71
21 81
21 29
21 37
21 22
21 23
21 24
21 25
21 26
21 27
21 30
21 39
21 48
21 57
21 66
21 75
21 20
21 19
21 13
21 12
21 11
21 5
21 3
21 1
22 32
22 42
22 52
22 62
22 72
22 30
22 38
22 46
22 23
22 24
22 25
22 26
22 27
22 31
22 40
22 49
22 58
22 67
22 76
22 21
22 20
22 19
22 14
22 13
22 12
22 6
22 4
22 2
23 33
23 43
23 53
23 63
23 31
23 39
23 47
23 55
23 24
23 25
23 26
23 27
23 32
23 41
23 50
23 59
23 68
23 77
23 22
23 21
23 20
23 19
23 15
23 14
23 13
23 7
23 5
23 3
24 34
24 44
24 54
24 32
24 40
24 48
24 56
24 64
24 25
24 26
24 27
24 33
24 42
24 51
24 60
24 69
24 78
24 23
24 22
24 21
24 20
24 19
24 16
24 15
24 14
24 8
24 6
24 4
25 35
25 45
25 33
25 41
25 49
25 57
25 65
25 73
25 26
25 27
25 34
25 43
25 52
25 61
25 70
25 79
25 24
25 23
25 22
25 21
25 20
25 19
25 17
25 16
25 15
25 9
25 7
25 5
26 36
26 34
26 42
26 50
26 58
26 66
26 74
26 27
26 35
26 44
26 53
26 62
26 71
26 80
26 25
26 24
26 23
26 22
26 21
26 20
26 19
26 18
26 17
26 16
26 8
26 6
27 35
27 43
27 51
27 59
27 67
27 75
27 36
27 45
27 54
27 63
27 72
27 81
27 26
27 25
27 24
27 23
27 22
27 21
27 20
27 19
27 18
27 17
27 9
27 7
28 38
28 48
28 58
28 68
28 78
28 29
28 30
28 31
28 32
28 33
28 34
28 35
28 36
28 37
28 46
28 55
28 64
28 73
28 20
28 19
28 12
28 10
28 4
28 1
29 39
29 49
29 59
29 69
29 79
29 37
29 30
29 31
29 32
29 33
29 34
29 35
29 36
29 38
29 47
29 56
29 65
29 74
29 28
29 21
29 20
29 19
29 13
29 11
29 5
29 2
30 40
30 50
30 60
30 70
30 80
30 38
30 46
30 31
30 32
30 33
30 34
30 35
30 36
30 39
30 48
30 57
30 66
30 75
30 29
30 28
30 22
30 21
30 20
30 14
30 12
30 10
30 6
30 3
31 41
31 51
31 61
31 71
31 81
31 39
31 47
31 55
31 32
31 33
31 34
31 35
31 36
31 40
31 49
31 58
31 67
31 76
31 30
31 29
31 28
31 23
31 22
31 21
31 15
31 13
31 11
31 7
31 4
31 1
32 42
32 52
32 62
32 72
32 40
32 48
32 56
32 64
32 33
32 34
32 35
32 36
32 41
32 50
32 59
32 68
32 77
32 31
32 30
32 29
32 28
32 24
32 23
32 22
32 16
32 14
32 12
32 8
32 5
32 2
33 43
33 53
33 63
33 41
33 49
33 57
33 65
33 73
33 34
33 35
33 36
33 42
33 51
33 60
33 69
33 78
33 32
33 31
33 30
33 29
33 28
33 25
33 24
33 23
33 17
33 15
33 13
33 9
33 6
33 3
34 44
34 54
34 42
34 50
34 58
34 66
34 74
34 35
34 36
34 43
34 52
34 61
34 70
34 79
34 33
34 32
34 31
34 30
34 29
34 28
34 26
34 25
34 24
34 18
34 16
34 14
34 7
34 4
35 45
35 43
35 51
35 59
35 67
35 75
35 36
35 44
35 53
35 62
35 71
35 80
35 34
35 33
35 32
35 31
35 30
35 29
35 28
35 27
35 26
35 25
35 17
35 15
35 8
35 5
36 44
36 52
36 60
36 68
36 76
36 45
36 54
36 63
36 72
36 81
36 35
36 34
36 33
36 32
36 31
36 30
36 29
36 28
36 27
36 26
36 18
36 16
36 9
36 6
37 47
37 57
37 67
37 77
37 38
37 39
37 40
37 41
37 42
37 43
37 44
37 45
37 46
37 55
37 64
37 73
37 29
37 28
37 21
37 19
37 13
37 10
37 5
37 1
38 48
38 58
38 68
38 78
38 46
38 39
38 40
38 41
38 42
38 43
38 44
38 45
38 47
38 56
38 65
38 74
38 37
38 30
38 29
38 28
38 22
38 20
38 14
38 11
38 6
38 2
39 49
39 59
39 69
39 79
39 47
39 55
39 40
39 41
39 42
39 43
39 44
39 45
39 48
39 57
39 66
39 75
39 38
39 37
39 31
39 30
39 29
39 23
39 21
39 19
39 15
39 12
39 7
39 3
40 50
40 60
40 70
40 80
40 48
40 56
40 64
40 41
40 42
40 43
40 44
40 45
40 49
40 58
40 67
40 76
40 39
40 38
40 37
40 32
40 31
40 30
40 24
40 22
40 20
40 16
40 13
40 10
40 8
40 4
41 51
41 61
41 71
41 81
41 49
41 57
41 65
41 73
41 42
41 43
41 44
41 45
41 50
41 59
41 68
41 77
41 40
41 39
41 38
41 37
41 33
41 32
41 31
41 25
41 23
41 21
41 17
41 14
41 11
41 9
41 5
41 1
42 52
42 62
42 72
42 50
42 58
42 66
42 74
42 43
42 44
42 45
42 51
42 60
42 69
42 78
42 41
42 40
42 39
42 38
42 37
42 34
42 33
42 32
42 26
42 24
42 22
42 18
42 15
42 12
42 6
42 2
43 53
43 63
43 51
43 59
43 67
43 75
43 44
43 45
43 52
43 61
43 70
43 79
43 42
43 41
43 40
43 39
43 38
43 37
43 35
43 34
43 33
43 27
43 25
43 23
43 16
43 13
43 7
43 3
44 54
44 52
44 60
44 68
44 76
44 45
44 53
44 62
44 71
44 80
44 43
44 42
44 41
44 40
44 39
44 38
44 37
44 36
44 35
44 34
44 26
44 24
44 17
44 14
44 8
44 4
45 53
45 61
45 69
45 77
45 54
45 63
45 72
45 81
45 44
45 43
45 42
45 41
45 40
45 39
45 38
45 37
45 36
45 35
45 27
45 25
45 18
45 15
45 9
45 5
46 56
46 66
46 76
46 47
46 48
46 49
46 50
46 51
46 52
46 53
46 54
46 55
46 64
46 73
46 38
46 37
46 30
46 28
46 22
46 19
46 14
46 10
46 6
46 1
47 57
47 67
47 77
47 55
47 48
47 49
47 50
47 51
47 52
47 53
47 54
47 56
47 65
47 74
47 46
47 39
47 38
47 37
47 31
47 29
47 23
47 20
47 15
47 11
47 7
47 2
48 58
48 68
48 78
48 56
48 64
48 49
48 50
48 51
48 52
48 53
48 54
48 57
48 66
48 75
48 47
48 46
48 40
48 39
48 38
48 32
48 30
48 28
48 24
48 21
48 16
48 12
48 8
48 3
49 59
49 69
49 79
49 57
49 65
49 73
49 50
49 51
49 52
49 53
49 54
49 58
49 67
49 76
49 48
49 47
49 46
49 41
49 40
49 39
49 33
49 31
49 29
49 25
49 22
49 19
49 17
49 13
49 9
49 4
50 60
50 70
50 80
50 58
50 66
50 74
50 51
50 52
50 53
50 54
50 59
50 68
50 77
50 49
50 48
50 47
50 46
50 42
50 41
50 40
50 34
50 32
50 30
50 26
50 23
50 20
50 18
50 14
50 10
50 5
51 61
51 71
51 81
51 59
51 67
51 75
51 52
51 53
51 54
51 60
51 69
51 78
51 50
51 49
51 48
51 47
51 46
51 43
51 42
51 41
51 35
51 33
51 31
51 27
51 24
51 21
51 15
51 11
51 6
51 1
52 62
52 72
52 60
52 68
52 76
52 53
52 54
52 61
52 70
52 79
52 51
52 50
52 49
52 48
52 47
52 46
52 44
52 43
52 42
52 36
52 34
52 32
52 25
52 22
52 16
52 12
52 7
52 2
53 63
53 61
53 69
53 77
53 54
53 62
53 71
53 80
53 52
53 51
53 50
53 49
53 48
53 47
53 46
53 45
53 44
53 43
53 35
53 33
53 26
53 23
53 17
53 13
53 8
53 3
54 62
54 70
54 78
54 63
54 72
54 81
54 53
54 52
54 51
54 50
54 49
54 48
54 47
54 46
54 45
54 44
54 36
54 34
54 27
54 24
54 18
54 14
54 9
54 4
55 65
55 75
55 56
55 57
55 58
55 59
55 60
55 61
55 62
55 63
55 64
55 73
55 47
55 46
55 39
55 37
55 31
55 28
55 23
55 19
55 15
55 10
55 7
55 1
56 66
56 76
56 64
56 57
56 58
56 59
56 60
56 61
56 62
56 63
56 65
56 74
56 55
56 48
56 47
56 46
56 40
56 38
56 32
56 29
56 24
56 20
56 16
56 11
56 8
56 2
57 67
57 77
57 65
57 73
57 58
57 59
57 60
57 61
57 62
57 63
57 66
57 75
57 56
57 55
57 49
57 48
57 47
57 41
57 39
57 37
57 33
57 30
57 25
57 21
57 17
57 12
57 9
57 3
58 68
58 78
58 66
58 74
58 59
58 60
58 61
58 62
58 63
58 67
58 76
58 57
58 56
58 55
58 50
58 49
58 48
58 42
58 40
58 38
58 34
58 31
58 28
58 26
58 22
58 18
58 13
58 4
59 69
59 79
59 67
59 75
59 60
59 61
59 62
59 63
59 68
59 77
59 58
59 57
59 56
59 55
59 51
59 50
59 49
59 43
59 41
59 39
59 35
59 32
59 29
59 27
59 23
59 19
59 14
59 5
60 70
60 80
60 68
60 76
60 61
60 62
60 63
60 69
60 78
60 59
60 58
60 57
60 56
60 55
60 52
60 51
60 50
60 44
60 42
60 40
60 36
60 33
60 30
60 24
60 20
60 15
60 10
60 6
61 71
61 81
61 69
61 77
61 62
61 63
61 70
61 79
61 60
61 59
61 58
61 57
61 56
61 55
61 53
61 52
61 51
61 45
61 43
61 41
61 34
61 31
61 25
61 21
61 16
61 11
61 7
61 1
62 72
62 70
62 78
62 63
62 71
62 80
62 61
62 60
62 59
62 58
62 57
62 56
62 55
62 54
62 53
62 52
62 44
62 42
62 35
62 32
62 26
62 22
62 17
62 12
62 8
62 2
63 71
63 79
63 72
63 81
63 62
63 61
63 60
63 59
63 58
63 57
63 56
63 55
63 54
63 53
63 45
63 43
63 36
63 33
63 27
63 23
63 18
63 13
63 9
63 3
64 74
64 65
64 66
64 67
64 68
64 69
64 70
64 71
64 72
64 73
64 56
64 55
64 48
64 46
64 40
64 37
64 32
64 28
64 24
64 19
64 16
64 10
64 8
64 1
65 75
65 73
65 66
65 67
65 68
65 69
65 70
65 71
65 72
65 74
65 64
65 57
65 56
65 55
65 49
65 47
65 41
65 38
65 33
65 29
65 25
65 20
65 17
65 11
65 9
65 2
66 76
66 74
66 67
66 68
66 69
66 70
66 71
66 72
66 75
66 65
66 64
66 58
66 57
66 56
66 50
66 48
66 46
66 42
66 39
66 34
66 30
66 26
66 21
66 18
66 12
66 3
67 77
67 75
67 68
67 69
67 70
67 71
67 72
67 76
67 66
67 65
67 64
67 59
67 58
67 57
67 51
67 49
67 47
67 43
67 40
67 37
67 35
67 31
67 27
67 22
67 13
67 4
68 78
68 76
68 69
68 70
68 71
68 72
68 77
68 67
68 66
68 65
68 64
68 60
68 59
68 58
68 52
68 50
68 48
68 44
68 41
68 38
68 36
68 32
68 28
68 23
68 14
68 5
69 79
69 77
69 70
69 71
69 72
69 78
69 68
69 67
69 66
69 65
69 64
69 61
69 60
69 59
69 53
69 51
69 49
69 45
69 42
69 39
69 33
69 29
69 24
69 19
69 15
69 6
70 80
70 78
70 71
70 72
70 79
70 69
70 68
70 67
70 66
70 65
70 64
70 62
70 61
70 60
70 54
70 52
70 50
70 43
70 40
70 34
70 30
70 25
70 20
70 16
70 10
70 7
71 81
71 79
71 72
71 80
71 70
71 69
71 68
71 67
71 66
71 65
71 64
71 63
71 62
71 61
71 53
71 51
71 44
71 41
71 35
71 31
71 26
71 21
71 17
71 11
71 8
71 1
72 80
72 81
72 71
72 70
72 69
72 68
72 67
72 66
72 65
72 64
72 63
72 62
72 54
72 52
72 45
72 42
72 36
72 32
72 27
72 22
72 18
72 12
72 9
72 2
73 74
73 75
73 76
73 77
73 78
73 79
73 80
73 81
73 65
73 64
73 57
73 55
73 49
73 46
73 41
73 37
73 33
73 28
73 25
73 19
73 17
73 10
73 9
73 1
74 75
74 76
74 77
74 78
74 79
74 80
74 81
74 73
74 66
74 65
74 64
74 58
74 56
74 50
74 47
74 42
74 38
74 34
74 29
74 26
74 20
74 18
74 11
74 2
75 76
75 77
75 78
75 79
75 80
75 81
75 74
75 73
75 67
75 66
75 65
75 59
75 57
75 55
75 51
75 48
75 43
75 39
75 35
75 30
75 27
75 21
75 12
75 3
76 77
76 78
76 79
76 80
76 81
76 75
76 74
76 73
76 68
76 67
76 66
76 60
76 58
76 56
76 52
76 49
76 46
76 44
76 40
76 36
76 31
76 22
76 13
76 4
77 78
77 79
77 80
77 81
77 76
77 75
77 74
77 73
77 69
77 68
77 67
77 61
77 59
77 57
77 53
77 50
77 47
77 45
77 41
77 37
77 32
77 23
77 14
77 5
78 79
78 80
78 81
78 77
78 76
78 75
78 74
78 73
78 70
78 69
78 68
78 62
78 60
78 58
78 54
78 51
78 48
78 42
78 38
78 33
78 28
78 24
78 15
78 6
79 80
79 81
79 78
79 77
79 76
79 75
79 74
79 73
79 71
79 70
79 69
79 63
79 61
79 59
79 52
79 49
79 43
79 39
79 34
79 29
79 25
79 19
79 16
79 7
80 81
80 79
80 78
80 77
80 76
80 75
80 74
80 73
80 72
80 71
80 70
80 62
80 60
80 53
80 50
80 44
80 40
80 35
80 30
80 26
80 20
80 17
80 10
80 8
81 80
81 79
81 78
81 77
81 76
81 75
81 74
81 73
81 72
81 71
81 63
81 61
81 54
81 51
81 45
81 41
81 36
81 31
81 27
81 21
81 18
81 11
81 9
81 1
